n_blocks=24;
chip_width=29;
widths=[3, 3, 3, 3, 3, 3, 3, 3, 3, 3, 3, 3, 4, 4, 4, 4, 4, 4, 4, 4, 4, 5, 5, 5];
heights=[3, 4, 5, 6, 7, 8, 9, 10, 11, 15, 18, 20, 3, 4, 5, 6, 7, 9, 15, 18, 20, 4, 8, 17];
chip_max_height=47